Selected objective sense:  MINIMIZE
Selected objective  name:  OBJ
Selected RHS        name:  RHS1
CPXPARAM_Preprocessing_Presolve                  0
CPXPARAM_LPMethod                                4
CPXPARAM_Threads                                 1
CPXPARAM_SolutionType                            2
CPXPARAM_TimeLimit                               3600
Tried aggregator 0 times.
Reduced presolve eliminated 48 rows and 1170 columns.
Reduced LP has 1036 rows, 4082 columns, and 138609 nonzeros.
Presolve time = 0.04 sec. (43.22 ticks)
Parallel mode: none, using 1 thread for barrier
Number of nonzeros in lower triangle of A*A' = 50485
Using Approximate Minimum Degree ordering
Total time for automatic ordering = 0.02 sec. (34.29 ticks)
Summary statistics for Cholesky factor:
  Rows in Factor            = 1036
  Integer space required    = 47491
  Total non-zeros in factor = 52847
  Total FP ops to factor    = 2812751
 Itn      Primal Obj        Dual Obj  Prim Inf Upper Inf  Dual Inf Inf Ratio
   0  -9.2716056e+04  -2.3888221e+04  9.56e+04  2.55e+01  4.46e+06  1.00e+00
   1  -1.6905789e+04   7.1921232e+03  2.51e+04  6.70e+00  1.23e+06  2.73e+00
   2  -1.7318560e+03   2.7788787e+03  3.54e+03  9.45e-01  4.52e+05  7.86e+00
   3   2.3467749e+03   2.1269640e+03  7.67e+02  2.05e-01  1.21e+05  5.84e+01
   4   7.5451585e+02  -7.5809403e+01  4.21e+02  1.12e-01  4.79e+04  2.60e+02
   5   1.1185742e+01  -5.8276136e+02  2.36e+02  6.28e-02  2.23e+04  9.10e+02
   6   6.2288451e+01  -4.7488903e+02  1.72e+02  4.59e-02  1.92e+04  1.18e+03
   7  -3.6023804e+02  -6.4413257e+02  1.15e+02  3.08e-02  1.49e+04  1.66e+03
   8  -3.8633972e+02  -7.9133488e+02  1.11e+02  2.97e-02  1.04e+04  2.46e+03
   9  -3.3982457e+02  -3.9864400e+02  1.19e+01  3.18e-03  1.43e+03  3.30e+04
  10  -3.8238485e+02  -4.1005871e+02  5.38e+00  1.44e-03  5.79e+02  1.25e+05
  11  -3.8239614e+02  -4.0813397e+02  5.37e+00  1.43e-03  5.17e+02  1.45e+05
  12  -3.9137182e+02  -4.0988305e+02  3.70e+00  9.88e-04  2.44e+02  4.51e+05
  13  -4.0275578e+02  -4.1664081e+02  2.25e+00  6.00e-04  8.67e+01  2.53e+06
  14  -4.0280974e+02  -4.1732116e+02  2.24e+00  5.98e-04  5.40e+01  4.67e+06
  15  -4.1113803e+02  -4.1881733e+02  1.41e+00  3.77e-04  4.40e+01  5.95e+06
  16  -4.1411215e+02  -4.1948615e+02  9.63e-01  2.57e-04  2.64e+01  1.14e+07
  17  -4.1833128e+02  -4.1989669e+02  3.44e-01  9.17e-05  1.72e+01  1.84e+07
  18  -4.1936357e+02  -4.2018721e+02  1.72e-01  4.59e-05  7.27e+00  5.24e+07
  19  -4.1981718e+02  -4.2039325e+02  1.10e-01  2.95e-05  3.88e+00  1.15e+08
  20  -4.2037861e+02  -4.2065464e+02  4.37e-02  1.17e-05  1.01e+00  4.93e+08
  21  -4.2040399e+02  -4.2071312e+02  4.08e-02  1.09e-05  4.17e-01  1.20e+09
  22  -4.2055872e+02  -4.2075013e+02  2.30e-02  6.13e-06  7.52e-02  5.06e+09
  23  -4.2067832e+02  -4.2075250e+02  8.88e-03  2.37e-06  2.57e-02  1.08e+10
  24  -4.2074099e+02  -4.2075404e+02  1.56e-03  4.17e-07  4.54e-03  1.71e+10
  25  -4.2074898e+02  -4.2075242e+02  2.76e-04  7.37e-08  2.34e-03  3.31e+10
  26  -4.2075055e+02  -4.2075078e+02  1.84e-05  4.92e-09  1.56e-04  9.80e+11
  27  -4.2075074e+02  -4.2075074e+02  5.01e-09  5.40e-13  1.60e-08  9.84e+15
Barrier time = 0.24 sec. (698.44 ticks)

Total time on 1 threads = 0.24 sec. (698.44 ticks)
Solve time: 0.242047421
Barrier iterations: 27
